% demand
num_movements = 41;
loading_factor = [1500, 1200, 1400, 1100, 950, 1150, 950, 1500, 1250, 1400, 1300, 1450, 1700, 1000, 1250, 1100, 1150, 1150, 1600, 1600, 1050, 1000, 950, 1050, 1350, 1450, 1100, 1500, 900, 900, 1750, 1050, 1650, 1950, 1200, 1000, 1400, 800, 1150, 1000, 1600];
pickup_time = [0, 0, 0, 0, 0, 0, 0, 0, 0, 2, 2, 2, 2, 2, 4, 4, 5, 6, 6, 6, 6, 6, 7, 7, 8, 8, 9, 9, 9, 10, 10, 11, 11, 11, 11, 11, 12, 12, 12, 12, 12];
delivery_time = [2, 2, 2, 7, 3, 3, 3, 2, 2, 3, 3, 3, 3, 7, 6, 7, 6, 8, 7, 8, 7, 9, 8, 8, 9, 9, 11, 12, 10, 12, 12, 13, 12, 12, 12, 12, 13, 13, 13, 13, 13];

% transporter definition
total_capacity = 11000;
num_decks = 4;
capacity = [3000, 3000, 1000, 4000];

% ways out of decks
num_ways_out = 2;
paths_out = array3d(decks, ways_out, decks, [
% ways out of deck d1
2, 4, 0, 0, 3, 4, 0, 0, 

% ways out of deck d2
4, 0, 0, 0, 0, 0, 0, 0,	

% ways out of deck d3
4, 0, 0, 0, 0, 0, 0, 0,	

% ways out of deck d4
0, 0, 0, 0,	0, 0, 0, 0,	

]);

